32
18
0 19 21 25 27 28 29
1 18 20 23 24 27 28 29
2 18 19 20 25 26 27 28 29
3 18 19 22 23 25 27 28 29 31
4 18 19 20 23 25 27 28 29
5 18 19 23 25 27 28 29 30
6 19 23 26 28 30
7 18 23 25 26 27 28 29 31
8 23
9 18 19 20 25 31
10 19 20 27 29
11 18 21 23 26 27
12 21 27 28
13 22
14 21 31
15 29
16
17
